peakDumbCharging = 11100; 
Machine = anon_enum(16); 
machineSpeed = [3700,3700,3700,3700,3700,3700,3700,3700,3700,3700,3700,3700,3700,3700,3700,3700]; 
machineLoad = [3700,3700,3700,3700,3700,3700,3700,3700,3700,3700,3700,3700,3700,3700,3700,3700]; 
Car = anon_enum(8); 
demandCar = [7840,7040,7320,5120,15800,11720,3200,2120]; 
arrivalCar = [74,74,73,71,66,61,47,44]; 
departureCar = [79,77,78,75,72,66,52,46]; 
